# method, basis set, ...
! {{method}} {{basis_set or "def2-SVP"}} {{scf_type or ""}} def2/J {{ri or ""}}
! opt
# other optional parameters
! {{symmetry or "NoUseSym"}} {{scf_convergence or ""}} {{dft_grid or ""}} {{dispersion or ""}}
# resume from previous job
! AUTOSTART

# for nodes in queue "dft"
%pal nprocs 36 end
%maxcore 5000

# for resolving scf convergence problems
! KDIIS SOSCF
#! SlowConv
%scf
  maxiter 500
  Shift Shift 0.1 ErrOff 0.1 end
end

# charge and multiplicity
* xyzfile {{charge}} {{multiplicity}} orca-input.xyz
