# method, basis set, ...
! UKS {{method or "PBE0" }} IGLO-III SOMF(1X) def2/J {{ri or ""}}
! TightSCF DefGrid3
! g-tensor
! CPCM
%cpcm
  epsilon 8.93
  refrac 1.424
end

%pal nprocs 36 end
%maxcore 3000

%eprnmr
    dtensor SSANDSO
    dss uno
end

%basis
newGTO Fe "CP(PPP)" end
end

# coordinates
{%- if write_molecule_geometry %}
* xyz {{charge}} {{multiplicity}}
{% for a in molecule.atoms -%}
{{a.symbol | format("<6") }} {{ a.x | format("-18.8")}} {{ a.y | format("-18.8")}} {{ a.z | format("-18.8")}}
{% endfor -%}
*
{% else %}
* xyzfile {{charge}} {{multiplicity}} orca-input.xyz
{% endif %}
