# https://git.rwth-aachen.de/krewald/mossbauerprediction
! {{method}} {{basis_set or "def2-SVP"}} {{scf_type or ""}} def2/J {{ri or ""}}
! TightSCF defgrid3

# other optional parameters
! {{symmetry or "NoUseSym"}} {{scf_convergence or ""}} {{dft_grid or ""}} {{dispersion or ""}}

! KDIIS Slowconv

# for nodes in queue "dft"
%pal nprocs 36 end
%maxcore 5000

%scf maxiter 500
  shift shift 1.0 erroff 0.2 end
end

%basis
newGTO Fe "CP(PPP)" end
end

%eprnmr
  nuclei = all Fe {fgrad, rho}
end

# coordinates
{%- if write_molecule_geometry %}
* xyz {{charge}} {{multiplicity}}
{% for a in molecule.atoms -%}
{{a.symbol | format("<6") }} {{ a.x | format("-18.8")}} {{ a.y | format("-18.8")}} {{ a.z | format("-18.8")}}
{% endfor -%}
*
{% else %}
* xyzfile {{charge}} {{multiplicity}} orca-input.xyz
{% endif %}
