# method, basis set, ...
! {{method}} {{basis_set or "def2-SVP"}} {{scf_type or ""}} def2/J {{ri or ""}}
! EnGrad
# other optional parameters
! {{symmetry or "NoUseSym"}} {{scf_convergence or ""}} {{dft_grid or ""}} {{dispersion or ""}}

# for nodes in queue "dft"
%pal nprocs 36 end
%maxcore 5000

# for resolving scf convergence problems
! KDIIS SOSCF
#! SlowConv
%scf
  maxiter 500
  Shift Shift 0.1 ErrOff 0.1 end
end

# coordinates
{%- if write_molecule_geometry %}
* xyz {{charge}} {{multiplicity}}
{% for a in molecule.atoms -%}
{{a.symbol | format("<6") }} {{ a.x | format("-18.8")}} {{ a.y | format("-18.8")}} {{ a.z | format("-18.8")}}
{% endfor -%}
*
{% else %}
* xyzfile {{charge}} {{multiplicity}} orca-input.xyz
{% endif %}
